
Gurobi 10.0.1 (linux64) logging started Sun Nov 26 15:41:53 2023

Set parameter LogFile to value "ArtificialInstance/ExperimentV2/S3T3K1/AdDo/gurobi91.txt"
Gurobi Optimizer version 10.0.1 build v10.0.1rc0 (linux64)

CPU model: AMD EPYC 7H12 64-Core Processor, instruction set [SSE2|AVX|AVX2]
Thread count: 128 physical cores, 128 logical processors, using up to 32 threads

Academic license 656792 - for non-commercial use only - registered to b.___@student.vu.nl
Optimize a model with 683 rows, 721 columns and 2591 nonzeros
Model fingerprint: 0x812583d2
Variable types: 0 continuous, 721 integer (721 binary)
Coefficient statistics:
  Matrix range     [1e+00, 1e+00]
  Objective range  [2e+00, 2e+01]
  Bounds range     [1e+00, 1e+00]
  RHS range        [1e+00, 1e+00]
Presolve removed 81 rows and 144 columns
Presolve time: 0.01s
Presolved: 602 rows, 577 columns, 2324 nonzeros
Variable types: 0 continuous, 577 integer (577 binary)
Found heuristic solution: objective 107.1279340
Found heuristic solution: objective 78.0621007

Root relaxation: objective 3.329069e+01, 266 iterations, 0.00 seconds (0.00 work units)

    Nodes    |    Current Node    |     Objective Bounds      |     Work
 Expl Unexpl |  Obj  Depth IntInf | Incumbent    BestBd   Gap | It/Node Time

*    0     0               0      33.2906887   33.29069  0.00%     -    0s

Explored 1 nodes (266 simplex iterations) in 0.03 seconds (0.01 work units)
Thread count was 32 (of 128 available processors)

Solution count 3: 33.2907 78.0621 107.128 

Optimal solution found (tolerance 1.00e-04)
Best objective 3.329068866772e+01, best bound 3.329068866772e+01, gap 0.0000%
